certificates/rado_a11_c96_N24.cnf
c Rad2 upper bound instance: x1 + 11*x2 - x3 = 96, interval [1,24]
p cnf 24 104
1 4 9 0
-1 -4 -9 0
1 10 15 0
-1 -10 -15 0
2 5 9 0
-2 -5 -9 0
2 10 16 0
-2 -10 -16 0
3 6 9 0
-3 -6 -9 0
3 10 17 0
-3 -10 -17 0
4 7 9 0
-4 -7 -9 0
4 10 18 0
-4 -10 -18 0
5 8 9 0
-5 -8 -9 0
5 10 19 0
-5 -10 -19 0
6 9 0
-6 -9 0
6 10 20 0
-6 -10 -20 0
7 9 10 0
-7 -9 -10 0
7 10 21 0
-7 -10 -21 0
8 9 11 0
-8 -9 -11 0
8 10 22 0
-8 -10 -22 0
1 8 9 0
-1 -8 -9 0
9 12 0
-9 -12 0
9 10 23 0
-9 -10 -23 0
2 8 10 0
-2 -8 -10 0
9 10 13 0
-9 -10 -13 0
10 24 0
-10 -24 0
3 8 11 0
-3 -8 -11 0
9 11 14 0
-9 -11 -14 0
4 8 12 0
-4 -8 -12 0
9 12 15 0
-9 -12 -15 0
5 8 13 0
-5 -8 -13 0
9 13 16 0
-9 -13 -16 0
6 8 14 0
-6 -8 -14 0
9 14 17 0
-9 -14 -17 0
7 8 15 0
-7 -8 -15 0
9 15 18 0
-9 -15 -18 0
8 16 0
-8 -16 0
9 16 19 0
-9 -16 -19 0
8 9 17 0
-8 -9 -17 0
9 17 20 0
-9 -17 -20 0
8 10 18 0
-8 -10 -18 0
9 18 21 0
-9 -18 -21 0
8 11 19 0
-8 -11 -19 0
9 19 22 0
-9 -19 -22 0
1 7 20 0
-1 -7 -20 0
8 12 20 0
-8 -12 -20 0
9 20 23 0
-9 -20 -23 0
2 7 21 0
-2 -7 -21 0
8 13 21 0
-8 -13 -21 0
9 21 24 0
-9 -21 -24 0
3 7 22 0
-3 -7 -22 0
8 14 22 0
-8 -14 -22 0
4 7 23 0
-4 -7 -23 0
8 15 23 0
-8 -15 -23 0
5 7 24 0
-5 -7 -24 0
8 16 24 0
-8 -16 -24 0
