certificates/rado_a11_c96_N24.drat
-21 -24 0
9 -24 0
-24 0
10 0
-9 0
6 0
12 0
21 0
-20 0
-7 0
23 0
17 0
1 0
4 0
5 0
-3 0
-15 0
-8 0
-18 0
-19 0
22 0
11 0
0
